# Solution for model p01_budget_0p050
# Objective value = 5.0000000000062383e-02
Risk 5.0000000000062383e-02
0 0
1 0
3 0.001
4 30.001
5 3.0002000000000002e+01
6 40.002
7 4.1920467466647288e+01
9 86.4057369185117
c(0,1)_Rl 0.001
c(0,1)_Ru 0
c(0,3)_Rl 0
c(0,3)_Ru 0
c(3,4)_Rl 0
c(3,4)_Ru 0
c(4,5)_Rl 0
c(4,5)_Ru 0
c(3,5)_Rl 0
c(3,5)_Ru 0
c(1,2)_l 0
c(1,2)_u 4.1919467466647291e+01
c(2,7)_Fl 0
c(2,7)_Fu 2.9638216130176087e-02
c(1,7)_Rl 0
c(1,7)_Ru 0
c(5,6)_Rl 0
c(5,6)_Ru 0
c(3,6)_Rl 0
c(3,6)_Ru 0
c(7,8)_l 0
c(7,8)_u 4.4484269451864414e+01
c(1,8)_Fl 0
c(1,8)_Fu 1.0180891934943148e-02
c(0,9)_Rl 0
c(0,9)_Ru 5.0405136918511708e+01
c(8,9)_Fl 0
c(8,9)_Fu 1.0180891934943148e-02
c(6,9)_Rl 0
c(6,9)_Ru 0
Cost 5.0406136918511706e+01
